(set-logic SLHV)
(declare-hvar emp IntHeap)
(declare-locvar nil IntLoc)
(declare-datatype pt_record_0 ((Pt_R_0 (loc IntLoc))))
(declare-datatype pt_record_1 ((Pt_R_1 (data Int))))
(declare-const d13 Int)
(declare-locvar l20 IntLoc)
(declare-hvar ah3 IntHeap)
(declare-hvar AH_3 IntHeap)
(declare-const d12 Int)
(declare-locvar l18 IntLoc)
(declare-hvar h18 IntHeap)
(declare-hvar H_3 IntHeap)
(declare-locvar l19 IntLoc)
(declare-const loc_3 Int)
(declare-hvar H_2 IntHeap)
(declare-hvar AH_2 IntHeap)
(declare-const $r_main0_2 Int)
(declare-const $r_main0_3 Int)
(declare-const $i9_main0_2 Int)
(declare-const $i9_main0_3 Int)
(declare-const $i8_push0_2 Int)
(declare-const $i8_push0_3 Int)
(declare-const $i8_main0_2 Int)
(declare-const $i8_main0_3 Int)
(declare-const $i7_push0_2 Int)
(declare-const $i7_push0_3 Int)
(declare-const $i7_pop0_2 Int)
(declare-const $i7_pop0_3 Int)
(declare-const $i7_main0_2 Int)
(declare-const $i7_main0_3 Int)
(declare-const $i6_push0_2 Int)
(declare-const $i6_push0_3 Int)
(declare-const $i6_pop0_2 Int)
(declare-const $i6_pop0_3 Int)
(declare-const $i6_main0_2 Int)
(declare-const $i6_main0_3 Int)
(declare-const $i5_push0_2 Int)
(declare-const $i5_push0_3 Int)
(declare-const $i5_pop0_2 Int)
(declare-const $i5_pop0_3 Int)
(declare-const $i5_main0_2 Int)
(declare-const $i5_main0_3 Int)
(declare-const $i4_push0_2 Int)
(declare-const $i4_push0_3 Int)
(declare-const $i4_pop0_2 Int)
(declare-const $i4_pop0_3 Int)
(declare-const $i4_main0_2 Int)
(declare-const $i4_main0_3 Int)
(declare-const $i3_push0_2 Int)
(declare-const $i3_push0_3 Int)
(declare-const $i3_pop0_2 Int)
(declare-const $i3_pop0_3 Int)
(declare-const $i3_main0_2 Int)
(declare-const $i3_main0_3 Int)
(declare-const $i2_push0_2 Int)
(declare-const $i2_push0_3 Int)
(declare-const $i2_pop0_2 Int)
(declare-const $i2_pop0_3 Int)
(declare-const $i2_main0_2 Int)
(declare-const $i2_main0_3 Int)
(declare-const $i24_main0_2 Int)
(declare-const $i24_main0_3 Int)
(declare-const $i23_push0_2 Int)
(declare-const $i23_push0_3 Int)
(declare-const $i23_main0_2 Int)
(declare-const $i23_main0_3 Int)
(declare-const $i22_main0_2 Int)
(declare-const $i22_main0_3 Int)
(declare-const $i21_main0_2 Int)
(declare-const $i21_main0_3 Int)
(declare-const $i20_pop0_2 Int)
(declare-const $i20_pop0_3 Int)
(declare-const $i1_push0_2 Int)
(declare-const $i1_push0_3 Int)
(declare-const $i1_pop0_2 Int)
(declare-const $i1_pop0_3 Int)
(declare-const $i1_main0_2 Int)
(declare-const $i1_main0_3 Int)
(declare-const $i19_main0_2 Int)
(declare-const $i19_main0_3 Int)
(declare-const $i16_pop0_2 Int)
(declare-const $i16_pop0_3 Int)
(declare-const $i12_main0_2 Int)
(declare-const $i12_main0_3 Int)
(declare-const $i10_pop0_2 Int)
(declare-const $i10_pop0_3 Int)
(declare-const $i10_main0_2 Int)
(declare-const $i10_main0_3 Int)
(declare-const $i0_push0_2 Int)
(declare-const $i0_push0_3 Int)
(declare-const $i0_pop0_2 Int)
(declare-const $i0_pop0_3 Int)
(declare-const $M.9_2 Int)
(declare-const $M.9_3 Int)
(declare-const $M.6_2 Int)
(declare-const $M.6_3 Int)
(declare-const $M.0_2 Int)
(declare-const $M.0_3 Int)
(declare-locvar $p9_push0_2 IntLoc)
(declare-locvar $p9_push0_3 IntLoc)
(declare-locvar $p9_pop0_2 IntLoc)
(declare-locvar $p9_pop0_3 IntLoc)
(declare-locvar $p8_pop0_2 IntLoc)
(declare-locvar $p8_pop0_3 IntLoc)
(declare-locvar $p24_push0_2 IntLoc)
(declare-locvar $p24_push0_3 IntLoc)
(declare-locvar $p24_pop0_2 IntLoc)
(declare-locvar $p24_pop0_3 IntLoc)
(declare-locvar $p23_pop0_2 IntLoc)
(declare-locvar $p23_pop0_3 IntLoc)
(declare-locvar $p22_push0_2 IntLoc)
(declare-locvar $p22_push0_3 IntLoc)
(declare-locvar $p22_pop0_2 IntLoc)
(declare-locvar $p22_pop0_3 IntLoc)
(declare-locvar $p21_push0_2 IntLoc)
(declare-locvar $p21_push0_3 IntLoc)
(declare-locvar $p21_pop0_2 IntLoc)
(declare-locvar $p21_pop0_3 IntLoc)
(declare-locvar $p20_push0_2 IntLoc)
(declare-locvar $p20_push0_3 IntLoc)
(declare-locvar $p20_main0_2 IntLoc)
(declare-locvar $p20_main0_3 IntLoc)
(declare-locvar $p19_push0_2 IntLoc)
(declare-locvar $p19_push0_3 IntLoc)
(declare-locvar $p19_pop0_2 IntLoc)
(declare-locvar $p19_pop0_3 IntLoc)
(declare-locvar $p18_push0_2 IntLoc)
(declare-locvar $p18_push0_3 IntLoc)
(declare-locvar $p18_pop0_2 IntLoc)
(declare-locvar $p18_pop0_3 IntLoc)
(declare-locvar $p18_main0_2 IntLoc)
(declare-locvar $p18_main0_3 IntLoc)
(declare-locvar $p17_push0_2 IntLoc)
(declare-locvar $p17_push0_3 IntLoc)
(declare-locvar $p17_pop0_2 IntLoc)
(declare-locvar $p17_pop0_3 IntLoc)
(declare-locvar $p17_main0_2 IntLoc)
(declare-locvar $p17_main0_3 IntLoc)
(declare-locvar $p16_push0_2 IntLoc)
(declare-locvar $p16_push0_3 IntLoc)
(declare-locvar $p16_main0_2 IntLoc)
(declare-locvar $p16_main0_3 IntLoc)
(declare-locvar $p15_push0_2 IntLoc)
(declare-locvar $p15_push0_3 IntLoc)
(declare-locvar $p15_pop0_2 IntLoc)
(declare-locvar $p15_pop0_3 IntLoc)
(declare-locvar $p15_main0_2 IntLoc)
(declare-locvar $p15_main0_3 IntLoc)
(declare-locvar $p14_push0_2 IntLoc)
(declare-locvar $p14_push0_3 IntLoc)
(declare-locvar $p14_pop0_2 IntLoc)
(declare-locvar $p14_pop0_3 IntLoc)
(declare-locvar $p14_main0_2 IntLoc)
(declare-locvar $p14_main0_3 IntLoc)
(declare-locvar $p13_push0_2 IntLoc)
(declare-locvar $p13_push0_3 IntLoc)
(declare-locvar $p13_pop0_2 IntLoc)
(declare-locvar $p13_pop0_3 IntLoc)
(declare-locvar $p13_main0_2 IntLoc)
(declare-locvar $p13_main0_3 IntLoc)
(declare-locvar $p12_push0_2 IntLoc)
(declare-locvar $p12_push0_3 IntLoc)
(declare-locvar $p12_pop0_2 IntLoc)
(declare-locvar $p12_pop0_3 IntLoc)
(declare-locvar $p11_push0_2 IntLoc)
(declare-locvar $p11_push0_3 IntLoc)
(declare-locvar $p11_pop0_2 IntLoc)
(declare-locvar $p11_pop0_3 IntLoc)
(declare-locvar $p11_main0_2 IntLoc)
(declare-locvar $p11_main0_3 IntLoc)
(declare-locvar $p10_push0_2 IntLoc)
(declare-locvar $p10_push0_3 IntLoc)
(declare-locvar $p0_main0_2 IntLoc)
(declare-locvar $p0_main0_3 IntLoc)
(declare-locvar $M.8_2 IntLoc)
(declare-locvar $M.8_3 IntLoc)
(declare-locvar $M.7_2 IntLoc)
(declare-locvar $M.7_3 IntLoc)
(declare-locvar $M.5_2 IntLoc)
(declare-locvar $M.5_3 IntLoc)
(declare-locvar $M.4_2 IntLoc)
(declare-locvar $M.4_3 IntLoc)
(declare-locvar $M.10_2 IntLoc)
(declare-locvar $M.10_3 IntLoc)
(declare-locvar $M.1_2 IntLoc)
(declare-locvar $M.1_3 IntLoc)
(declare-const loc_2 Int)
(declare-const $i6_main01_3 Int)
(declare-const $i5_main01_3 Int)
(declare-const $i2_main03_3 Int)
(declare-locvar $p11_main01_3 IntLoc)
(declare-const $i12_main01_3 Int)
(declare-const $i10_main01_3 Int)
(declare-hvar H_1 IntHeap)
(declare-hvar AH_1 IntHeap)
(declare-const $r_main0_1 Int)
(declare-const $i9_main0_1 Int)
(declare-const $i8_push0_1 Int)
(declare-const $i8_main0_1 Int)
(declare-const $i7_push0_1 Int)
(declare-const $i7_pop0_1 Int)
(declare-const $i7_main0_1 Int)
(declare-const $i6_push0_1 Int)
(declare-const $i6_pop0_1 Int)
(declare-const $i6_main0_1 Int)
(declare-const $i5_push0_1 Int)
(declare-const $i5_pop0_1 Int)
(declare-const $i5_main0_1 Int)
(declare-const $i4_push0_1 Int)
(declare-const $i4_pop0_1 Int)
(declare-const $i3_push0_1 Int)
(declare-const $i3_pop0_1 Int)
(declare-const $i2_push0_1 Int)
(declare-const $i2_pop0_1 Int)
(declare-const $i24_main0_1 Int)
(declare-const $i23_push0_1 Int)
(declare-const $i23_main0_1 Int)
(declare-const $i22_main0_1 Int)
(declare-const $i21_main0_1 Int)
(declare-const $i20_pop0_1 Int)
(declare-const $i1_push0_1 Int)
(declare-const $i1_pop0_1 Int)
(declare-const $i1_main0_1 Int)
(declare-const $i19_main0_1 Int)
(declare-const $i16_pop0_1 Int)
(declare-const $i12_main0_1 Int)
(declare-const $i10_pop0_1 Int)
(declare-const $i10_main0_1 Int)
(declare-const $i0_push0_1 Int)
(declare-const $i0_pop0_1 Int)
(declare-const $M.9_1 Int)
(declare-const $M.6_1 Int)
(declare-const $M.0_1 Int)
(declare-locvar $p9_push0_1 IntLoc)
(declare-locvar $p9_pop0_1 IntLoc)
(declare-locvar $p8_pop0_1 IntLoc)
(declare-locvar $p24_push0_1 IntLoc)
(declare-locvar $p24_pop0_1 IntLoc)
(declare-locvar $p23_pop0_1 IntLoc)
(declare-locvar $p22_push0_1 IntLoc)
(declare-locvar $p22_pop0_1 IntLoc)
(declare-locvar $p21_push0_1 IntLoc)
(declare-locvar $p21_pop0_1 IntLoc)
(declare-locvar $p20_push0_1 IntLoc)
(declare-locvar $p20_main0_1 IntLoc)
(declare-locvar $p19_push0_1 IntLoc)
(declare-locvar $p19_pop0_1 IntLoc)
(declare-locvar $p18_push0_1 IntLoc)
(declare-locvar $p18_pop0_1 IntLoc)
(declare-locvar $p18_main0_1 IntLoc)
(declare-locvar $p17_push0_1 IntLoc)
(declare-locvar $p17_pop0_1 IntLoc)
(declare-locvar $p17_main0_1 IntLoc)
(declare-locvar $p16_push0_1 IntLoc)
(declare-locvar $p16_main0_1 IntLoc)
(declare-locvar $p15_push0_1 IntLoc)
(declare-locvar $p15_pop0_1 IntLoc)
(declare-locvar $p15_main0_1 IntLoc)
(declare-locvar $p14_push0_1 IntLoc)
(declare-locvar $p14_pop0_1 IntLoc)
(declare-locvar $p14_main0_1 IntLoc)
(declare-locvar $p13_push0_1 IntLoc)
(declare-locvar $p13_pop0_1 IntLoc)
(declare-locvar $p13_main0_1 IntLoc)
(declare-locvar $p12_push0_1 IntLoc)
(declare-locvar $p12_pop0_1 IntLoc)
(declare-locvar $p11_push0_1 IntLoc)
(declare-locvar $p11_pop0_1 IntLoc)
(declare-locvar $p11_main0_1 IntLoc)
(declare-locvar $p10_push0_1 IntLoc)
(declare-locvar $p0_main0_1 IntLoc)
(declare-locvar $M.8_1 IntLoc)
(declare-locvar $M.7_1 IntLoc)
(declare-locvar $M.5_1 IntLoc)
(declare-locvar $M.4_1 IntLoc)
(declare-locvar $M.10_1 IntLoc)
(declare-locvar $M.1_1 IntLoc)
(declare-const $i4_main01_2 Int)
(declare-const $i3_main01_2 Int)
(declare-const $i2_main02_2 Int)
(declare-const loc_1 Int)
(declare-const $i4_main0_1 Int)
(declare-const $i3_main0_1 Int)
(declare-const $i2_main0_1 Int)
(declare-hvar H_0 IntHeap)
(declare-hvar AH_0 IntHeap)
(declare-const $r_main0_0 Int)
(declare-const $i9_main0_0 Int)
(declare-const $i8_push0_0 Int)
(declare-const $i8_main0_0 Int)
(declare-const $i7_push0_0 Int)
(declare-const $i7_pop0_0 Int)
(declare-const $i7_main0_0 Int)
(declare-const $i6_push0_0 Int)
(declare-const $i6_pop0_0 Int)
(declare-const $i6_main0_0 Int)
(declare-const $i5_push0_0 Int)
(declare-const $i5_pop0_0 Int)
(declare-const $i5_main0_0 Int)
(declare-const $i4_push0_0 Int)
(declare-const $i4_pop0_0 Int)
(declare-const $i4_main0_0 Int)
(declare-const $i3_push0_0 Int)
(declare-const $i3_pop0_0 Int)
(declare-const $i3_main0_0 Int)
(declare-const $i2_push0_0 Int)
(declare-const $i2_pop0_0 Int)
(declare-const $i24_main0_0 Int)
(declare-const $i23_push0_0 Int)
(declare-const $i23_main0_0 Int)
(declare-const $i22_main0_0 Int)
(declare-const $i21_main0_0 Int)
(declare-const $i20_pop0_0 Int)
(declare-const $i1_push0_0 Int)
(declare-const $i1_pop0_0 Int)
(declare-const $i19_main0_0 Int)
(declare-const $i16_pop0_0 Int)
(declare-const $i12_main0_0 Int)
(declare-const $i10_pop0_0 Int)
(declare-const $i10_main0_0 Int)
(declare-const $i0_push0_0 Int)
(declare-const $i0_pop0_0 Int)
(declare-const $M.9_0 Int)
(declare-const $M.6_0 Int)
(declare-const $M.0_0 Int)
(declare-locvar $p9_push0_0 IntLoc)
(declare-locvar $p9_pop0_0 IntLoc)
(declare-locvar $p8_pop0_0 IntLoc)
(declare-locvar $p24_push0_0 IntLoc)
(declare-locvar $p24_pop0_0 IntLoc)
(declare-locvar $p23_pop0_0 IntLoc)
(declare-locvar $p22_push0_0 IntLoc)
(declare-locvar $p22_pop0_0 IntLoc)
(declare-locvar $p21_push0_0 IntLoc)
(declare-locvar $p21_pop0_0 IntLoc)
(declare-locvar $p20_push0_0 IntLoc)
(declare-locvar $p20_main0_0 IntLoc)
(declare-locvar $p19_push0_0 IntLoc)
(declare-locvar $p19_pop0_0 IntLoc)
(declare-locvar $p18_push0_0 IntLoc)
(declare-locvar $p18_pop0_0 IntLoc)
(declare-locvar $p18_main0_0 IntLoc)
(declare-locvar $p17_push0_0 IntLoc)
(declare-locvar $p17_pop0_0 IntLoc)
(declare-locvar $p17_main0_0 IntLoc)
(declare-locvar $p16_push0_0 IntLoc)
(declare-locvar $p16_main0_0 IntLoc)
(declare-locvar $p15_push0_0 IntLoc)
(declare-locvar $p15_pop0_0 IntLoc)
(declare-locvar $p15_main0_0 IntLoc)
(declare-locvar $p14_push0_0 IntLoc)
(declare-locvar $p14_pop0_0 IntLoc)
(declare-locvar $p14_main0_0 IntLoc)
(declare-locvar $p13_push0_0 IntLoc)
(declare-locvar $p13_pop0_0 IntLoc)
(declare-locvar $p13_main0_0 IntLoc)
(declare-locvar $p12_push0_0 IntLoc)
(declare-locvar $p12_pop0_0 IntLoc)
(declare-locvar $p11_push0_0 IntLoc)
(declare-locvar $p11_pop0_0 IntLoc)
(declare-locvar $p11_main0_0 IntLoc)
(declare-locvar $p10_push0_0 IntLoc)
(declare-locvar $M.8_0 IntLoc)
(declare-locvar $M.7_0 IntLoc)
(declare-locvar $M.5_0 IntLoc)
(declare-locvar $M.4_0 IntLoc)
(declare-locvar $M.10_0 IntLoc)
(declare-locvar $M.1_0 IntLoc)
(declare-locvar $p0_main01_1 IntLoc)
(declare-const $i2_main01_1 Int)
(declare-const $i1_main01_1 Int)
(declare-const loc_0 Int)
(assert
 (let (($x2452 (or (= H_3 (uplus h18 (pt l18 (Pt_R_0 l19)))) (= H_3 (uplus h18 (pt l18 (Pt_R_1 d12)))))))
 (let (($x2461 (and (and false $x2452) (= AH_3 (uplus ah3 (pt l20 (Pt_R_1 d13)))))))
 (let (($x2293 (= loc_3 3)))
 (let (($x2088 (= H_3 H_2)))
 (let (($x2089 (and (and true (= AH_3 AH_2)) $x2088)))
 (let (($x2081 (= $r_main0_3 $r_main0_2)))
 (let (($x2078 (= $i9_main0_3 $i9_main0_2)))
 (let (($x2075 (= $i8_push0_3 $i8_push0_2)))
 (let (($x2072 (= $i8_main0_3 $i8_main0_2)))
 (let (($x2069 (= $i7_push0_3 $i7_push0_2)))
 (let (($x2066 (= $i7_pop0_3 $i7_pop0_2)))
 (let (($x2063 (= $i7_main0_3 $i7_main0_2)))
 (let (($x2060 (= $i6_push0_3 $i6_push0_2)))
 (let (($x2057 (= $i6_pop0_3 $i6_pop0_2)))
 (let (($x2054 (= $i6_main0_3 $i6_main0_2)))
 (let (($x2051 (= $i5_push0_3 $i5_push0_2)))
 (let (($x2048 (= $i5_pop0_3 $i5_pop0_2)))
 (let (($x2045 (= $i5_main0_3 $i5_main0_2)))
 (let (($x2042 (= $i4_push0_3 $i4_push0_2)))
 (let (($x2039 (= $i4_pop0_3 $i4_pop0_2)))
 (let (($x2036 (= $i4_main0_3 $i4_main0_2)))
 (let (($x2033 (= $i3_push0_3 $i3_push0_2)))
 (let (($x2030 (= $i3_pop0_3 $i3_pop0_2)))
 (let (($x2027 (= $i3_main0_3 $i3_main0_2)))
 (let (($x2024 (= $i2_push0_3 $i2_push0_2)))
 (let (($x2021 (= $i2_pop0_3 $i2_pop0_2)))
 (let (($x2018 (= $i2_main0_3 $i2_main0_2)))
 (let (($x2015 (= $i24_main0_3 $i24_main0_2)))
 (let (($x2012 (= $i23_push0_3 $i23_push0_2)))
 (let (($x2009 (= $i23_main0_3 $i23_main0_2)))
 (let (($x2006 (= $i22_main0_3 $i22_main0_2)))
 (let (($x2003 (= $i21_main0_3 $i21_main0_2)))
 (let (($x2000 (= $i20_pop0_3 $i20_pop0_2)))
 (let (($x1997 (= $i1_push0_3 $i1_push0_2)))
 (let (($x1994 (= $i1_pop0_3 $i1_pop0_2)))
 (let (($x1991 (= $i1_main0_3 $i1_main0_2)))
 (let (($x1988 (= $i19_main0_3 $i19_main0_2)))
 (let (($x1985 (= $i16_pop0_3 $i16_pop0_2)))
 (let (($x1982 (= $i12_main0_3 $i12_main0_2)))
 (let (($x1979 (= $i10_pop0_3 $i10_pop0_2)))
 (let (($x2154 (= $i10_main0_3 $i10_main0_2)))
 (let (($x1976 (= $i0_push0_3 $i0_push0_2)))
 (let (($x1973 (= $i0_pop0_3 $i0_pop0_2)))
 (let (($x1970 (= $M.9_3 $M.9_2)))
 (let (($x1971 (and (and (and true (= $M.0_3 $M.0_2)) (= $M.6_3 $M.6_2)) $x1970)))
 (let (($x1977 (and (and $x1971 $x1973) $x1976)))
 (let (($x2156 (and (and $x1977 $x2154) $x1979)))
 (let (($x2230 (and (and (and (and (and (and $x2156 $x1982) $x1985) $x1988) $x1991) $x1994) $x1997)))
 (let (($x2236 (and (and (and (and (and (and $x2230 $x2000) $x2003) $x2006) $x2009) $x2012) $x2015)))
 (let (($x2273 (and (and (and (and (and (and $x2236 $x2018) $x2021) $x2024) $x2027) $x2030) $x2033)))
 (let (($x2279 (and (and (and (and (and (and $x2273 $x2036) $x2039) $x2042) $x2045) $x2048) $x2051)))
 (let (($x2285 (and (and (and (and (and (and $x2279 $x2054) $x2057) $x2060) $x2063) $x2066) $x2069)))
 (let (($x2289 (and (and (and (and $x2285 $x2072) $x2075) $x2078) $x2081)))
 (let (($x1960 (= $p9_push0_3 $p9_push0_2)))
 (let (($x1957 (= $p9_pop0_3 $p9_pop0_2)))
 (let (($x1954 (= $p8_pop0_3 $p8_pop0_2)))
 (let (($x1951 (= $p24_push0_3 $p24_push0_2)))
 (let (($x1948 (= $p24_pop0_3 $p24_pop0_2)))
 (let (($x1945 (= $p23_pop0_3 $p23_pop0_2)))
 (let (($x1942 (= $p22_push0_3 $p22_push0_2)))
 (let (($x1939 (= $p22_pop0_3 $p22_pop0_2)))
 (let (($x1936 (= $p21_push0_3 $p21_push0_2)))
 (let (($x1933 (= $p21_pop0_3 $p21_pop0_2)))
 (let (($x1930 (= $p20_push0_3 $p20_push0_2)))
 (let (($x1927 (= $p20_main0_3 $p20_main0_2)))
 (let (($x1924 (= $p19_push0_3 $p19_push0_2)))
 (let (($x1921 (= $p19_pop0_3 $p19_pop0_2)))
 (let (($x1918 (= $p18_push0_3 $p18_push0_2)))
 (let (($x1915 (= $p18_pop0_3 $p18_pop0_2)))
 (let (($x1912 (= $p18_main0_3 $p18_main0_2)))
 (let (($x1909 (= $p17_push0_3 $p17_push0_2)))
 (let (($x1906 (= $p17_pop0_3 $p17_pop0_2)))
 (let (($x1903 (= $p17_main0_3 $p17_main0_2)))
 (let (($x1900 (= $p16_push0_3 $p16_push0_2)))
 (let (($x1897 (= $p16_main0_3 $p16_main0_2)))
 (let (($x1894 (= $p15_push0_3 $p15_push0_2)))
 (let (($x1891 (= $p15_pop0_3 $p15_pop0_2)))
 (let (($x1888 (= $p15_main0_3 $p15_main0_2)))
 (let (($x1885 (= $p14_push0_3 $p14_push0_2)))
 (let (($x1882 (= $p14_pop0_3 $p14_pop0_2)))
 (let (($x1879 (= $p14_main0_3 $p14_main0_2)))
 (let (($x1876 (= $p13_push0_3 $p13_push0_2)))
 (let (($x1873 (= $p13_pop0_3 $p13_pop0_2)))
 (let (($x1870 (= $p13_main0_3 $p13_main0_2)))
 (let (($x1867 (= $p12_push0_3 $p12_push0_2)))
 (let (($x1864 (= $p12_pop0_3 $p12_pop0_2)))
 (let (($x1861 (= $p11_push0_3 $p11_push0_2)))
 (let (($x1858 (= $p11_pop0_3 $p11_pop0_2)))
 (let (($x1855 (= $p11_main0_3 $p11_main0_2)))
 (let (($x1852 (= $p10_push0_3 $p10_push0_2)))
 (let (($x1849 (= $p0_main0_3 $p0_main0_2)))
 (let (($x1846 (= $M.8_3 $M.8_2)))
 (let (($x1843 (= $M.7_3 $M.7_2)))
 (let (($x1840 (= $M.5_3 $M.5_2)))
 (let (($x1837 (= $M.4_3 $M.4_2)))
 (let (($x1838 (and (and (and true (= $M.1_3 $M.1_2)) (= $M.10_3 $M.10_2)) $x1837)))
 (let (($x1853 (and (and (and (and (and $x1838 $x1840) $x1843) $x1846) $x1849) $x1852)))
 (let (($x1871 (and (and (and (and (and (and $x1853 $x1855) $x1858) $x1861) $x1864) $x1867) $x1870)))
 (let (($x1889 (and (and (and (and (and (and $x1871 $x1873) $x1876) $x1879) $x1882) $x1885) $x1888)))
 (let (($x1907 (and (and (and (and (and (and $x1889 $x1891) $x1894) $x1897) $x1900) $x1903) $x1906)))
 (let (($x1925 (and (and (and (and (and (and $x1907 $x1909) $x1912) $x1915) $x1918) $x1921) $x1924)))
 (let (($x1943 (and (and (and (and (and (and $x1925 $x1927) $x1930) $x1933) $x1936) $x1939) $x1942)))
 (let (($x1961 (and (and (and (and (and (and $x1943 $x1945) $x1948) $x1951) $x1954) $x1957) $x1960)))
 (let (($x1488 (and true true)))
 (let (($x2200 (= $i4_main0_2 1)))
 (let (($x1810 (= loc_2 4)))
 (let (($x2264 (and $x1810 $x2200)))
 (let (($x2260 (= loc_3 7)))
 (let (($x2242 (and (and (and (and (and (and $x2236 $x2021) $x2024) $x2027) $x2030) $x2033) $x2036)))
 (let (($x2248 (and (and (and (and (and (and $x2242 $x2039) $x2042) $x2048) $x2051) $x2057) $x2060)))
 (let (($x2254 (and (and (and (and (and (and $x2248 $x2063) $x2066) $x2069) $x2072) $x2075) $x2078)))
 (let (($x2255 (and $x2254 $x2081)))
 (let (($x2220 (= $i6_main0_3 $i6_main01_3)))
 (let (($x2221 (and (and (= $i2_main0_3 $i2_main03_3) (= $i5_main0_3 $i5_main01_3)) $x2220)))
 (let (($x2222 (and $x2221 true)))
 (let (($x2203 (= $i2_main03_3 1)))
 (let (($x2211 (or (and (and (distinct 1 $i5_main01_3) true) (= $i6_main01_3 1)) (and (not (and (distinct 1 $i5_main01_3) true)) (= $i6_main01_3 0)))))
 (let (($x2213 (= $i5_main01_3 $M.6_2)))
 (let (($x2429 (and (and (and (and (and (and $x2213 $x2211) $x2203) $x2222) $x1961) $x2255) $x2089)))
 (let (($x2202 (and $x1810 (not $x2200))))
 (let (($x2193 (= loc_3 6)))
 (let (($x2162 (and (and (and (and (and (and $x2156 $x1985) $x1988) $x1991) $x1994) $x1997) $x2000)))
 (let (($x2168 (and (and (and (and (and (and $x2162 $x2003) $x2006) $x2009) $x2012) $x2015) $x2018)))
 (let (($x2174 (and (and (and (and (and (and $x2168 $x2021) $x2024) $x2027) $x2030) $x2033) $x2036)))
 (let (($x2180 (and (and (and (and (and (and $x2174 $x2039) $x2042) $x2045) $x2048) $x2051) $x2054)))
 (let (($x2186 (and (and (and (and (and (and $x2180 $x2057) $x2060) $x2063) $x2066) $x2069) $x2072)))
 (let (($x2189 (and (and (and $x2186 $x2075) $x2078) $x2081)))
 (let (($x2123 (and (and (and (and (and (and $x1853 $x1858) $x1861) $x1864) $x1867) $x1870) $x1873)))
 (let (($x2129 (and (and (and (and (and (and $x2123 $x1876) $x1879) $x1882) $x1885) $x1888) $x1891)))
 (let (($x2135 (and (and (and (and (and (and $x2129 $x1894) $x1897) $x1900) $x1903) $x1906) $x1909)))
 (let (($x2141 (and (and (and (and (and (and $x2135 $x1912) $x1915) $x1918) $x1921) $x1924) $x1927)))
 (let (($x2147 (and (and (and (and (and (and $x2141 $x1930) $x1933) $x1936) $x1939) $x1942) $x1945)))
 (let (($x2152 (and (and (and (and (and $x2147 $x1948) $x1951) $x1954) $x1957) $x1960)))
 (let (($x2115 (and (= $i12_main0_3 $i12_main01_3) (= $p11_main0_3 $p11_main01_3))))
 (let (($x2116 (and $x2115 true)))
 (let (($x2108 (or (and (and (distinct $p11_main01_3 nil) true) (= $i12_main01_3 1)) (and (not (and (distinct $p11_main01_3 nil) true)) (= $i12_main01_3 0)))))
 (let (($x2110 (= $p11_main01_3 $M.10_2)))
 (let (($x2421 (and (and (and (and (and (and $x2110 $x2108) $x2116) $x2152) $x2189) $x2089) $x2193)))
 (let (($x1758 (= loc_2 3)))
 (let (($x2101 (and $x1758 (not (= $i2_main0_2 1)))))
 (let (($x2095 (= loc_3 5)))
 (let (($x1995 (and (and (and (and (and (and $x1977 $x1979) $x1982) $x1985) $x1988) $x1991) $x1994)))
 (let (($x2013 (and (and (and (and (and (and $x1995 $x1997) $x2000) $x2003) $x2006) $x2009) $x2012)))
 (let (($x2031 (and (and (and (and (and (and $x2013 $x2015) $x2018) $x2021) $x2024) $x2027) $x2030)))
 (let (($x2049 (and (and (and (and (and (and $x2031 $x2033) $x2036) $x2039) $x2042) $x2045) $x2048)))
 (let (($x2067 (and (and (and (and (and (and $x2049 $x2051) $x2054) $x2057) $x2060) $x2063) $x2066)))
 (let (($x2082 (and (and (and (and (and $x2067 $x2069) $x2072) $x2075) $x2078) $x2081)))
 (let (($x1827 (= $i10_main0_3 $i10_main01_3)))
 (let (($x1828 (and $x1827 true)))
 (let (($x1824 (or (and (and (distinct $i9_main0_2 0) true) (= $i10_main01_3 1)) (and (not (and (distinct $i9_main0_2 0) true)) (= $i10_main01_3 0)))))
 (let (($x1816 (= $i2_main0_2 1)))
 (let (($x1817 (and $x1758 $x1816)))
 (let (($x2415 (=> $x1817 (and (and (and (and (and $x1824 $x1828) $x1961) $x2082) $x2089) $x2095))))
 (let (($x2438 (and (and (and $x2415 (=> $x2101 $x2421)) (=> $x2202 (and $x2429 $x2260))) (=> $x2264 (and (and (and (and $x1488 $x1961) $x2289) $x2089) $x2293)))))
 (let (($x1751 (= H_2 H_1)))
 (let (($x1752 (and (and true (= AH_2 AH_1)) $x1751)))
 (let (($x1744 (= $r_main0_2 $r_main0_1)))
 (let (($x1741 (= $i9_main0_2 $i9_main0_1)))
 (let (($x1738 (= $i8_push0_2 $i8_push0_1)))
 (let (($x1735 (= $i8_main0_2 $i8_main0_1)))
 (let (($x1732 (= $i7_push0_2 $i7_push0_1)))
 (let (($x1729 (= $i7_pop0_2 $i7_pop0_1)))
 (let (($x1726 (= $i7_main0_2 $i7_main0_1)))
 (let (($x1723 (= $i6_push0_2 $i6_push0_1)))
 (let (($x1720 (= $i6_pop0_2 $i6_pop0_1)))
 (let (($x1717 (= $i6_main0_2 $i6_main0_1)))
 (let (($x1714 (= $i5_push0_2 $i5_push0_1)))
 (let (($x1711 (= $i5_pop0_2 $i5_pop0_1)))
 (let (($x1708 (= $i5_main0_2 $i5_main0_1)))
 (let (($x1705 (= $i4_push0_2 $i4_push0_1)))
 (let (($x1702 (= $i4_pop0_2 $i4_pop0_1)))
 (let (($x1696 (= $i3_push0_2 $i3_push0_1)))
 (let (($x1693 (= $i3_pop0_2 $i3_pop0_1)))
 (let (($x1687 (= $i2_push0_2 $i2_push0_1)))
 (let (($x1684 (= $i2_pop0_2 $i2_pop0_1)))
 (let (($x1678 (= $i24_main0_2 $i24_main0_1)))
 (let (($x1675 (= $i23_push0_2 $i23_push0_1)))
 (let (($x1672 (= $i23_main0_2 $i23_main0_1)))
 (let (($x1669 (= $i22_main0_2 $i22_main0_1)))
 (let (($x1666 (= $i21_main0_2 $i21_main0_1)))
 (let (($x1663 (= $i20_pop0_2 $i20_pop0_1)))
 (let (($x1660 (= $i1_push0_2 $i1_push0_1)))
 (let (($x1657 (= $i1_pop0_2 $i1_pop0_1)))
 (let (($x1654 (= $i1_main0_2 $i1_main0_1)))
 (let (($x1651 (= $i19_main0_2 $i19_main0_1)))
 (let (($x1648 (= $i16_pop0_2 $i16_pop0_1)))
 (let (($x1645 (= $i12_main0_2 $i12_main0_1)))
 (let (($x1642 (= $i10_pop0_2 $i10_pop0_1)))
 (let (($x1639 (= $i10_main0_2 $i10_main0_1)))
 (let (($x1636 (= $i0_push0_2 $i0_push0_1)))
 (let (($x1633 (= $i0_pop0_2 $i0_pop0_1)))
 (let (($x1630 (= $M.9_2 $M.9_1)))
 (let (($x1631 (and (and (and true (= $M.0_2 $M.0_1)) (= $M.6_2 $M.6_1)) $x1630)))
 (let (($x1649 (and (and (and (and (and (and $x1631 $x1633) $x1636) $x1639) $x1642) $x1645) $x1648)))
 (let (($x1667 (and (and (and (and (and (and $x1649 $x1651) $x1654) $x1657) $x1660) $x1663) $x1666)))
 (let (($x1679 (and (and (and (and $x1667 $x1669) $x1672) $x1675) $x1678)))
 (let (($x1793 (and (and (and (and (and (and $x1679 $x1684) $x1687) $x1693) $x1696) $x1702) $x1705)))
 (let (($x1799 (and (and (and (and (and (and $x1793 $x1708) $x1711) $x1714) $x1717) $x1720) $x1723)))
 (let (($x1805 (and (and (and (and (and (and $x1799 $x1726) $x1729) $x1732) $x1735) $x1738) $x1741)))
 (let (($x1806 (and $x1805 $x1744)))
 (let (($x1620 (= $p9_push0_2 $p9_push0_1)))
 (let (($x1617 (= $p9_pop0_2 $p9_pop0_1)))
 (let (($x1614 (= $p8_pop0_2 $p8_pop0_1)))
 (let (($x1611 (= $p24_push0_2 $p24_push0_1)))
 (let (($x1608 (= $p24_pop0_2 $p24_pop0_1)))
 (let (($x1605 (= $p23_pop0_2 $p23_pop0_1)))
 (let (($x1602 (= $p22_push0_2 $p22_push0_1)))
 (let (($x1599 (= $p22_pop0_2 $p22_pop0_1)))
 (let (($x1596 (= $p21_push0_2 $p21_push0_1)))
 (let (($x1593 (= $p21_pop0_2 $p21_pop0_1)))
 (let (($x1590 (= $p20_push0_2 $p20_push0_1)))
 (let (($x1587 (= $p20_main0_2 $p20_main0_1)))
 (let (($x1584 (= $p19_push0_2 $p19_push0_1)))
 (let (($x1581 (= $p19_pop0_2 $p19_pop0_1)))
 (let (($x1578 (= $p18_push0_2 $p18_push0_1)))
 (let (($x1575 (= $p18_pop0_2 $p18_pop0_1)))
 (let (($x1572 (= $p18_main0_2 $p18_main0_1)))
 (let (($x1569 (= $p17_push0_2 $p17_push0_1)))
 (let (($x1566 (= $p17_pop0_2 $p17_pop0_1)))
 (let (($x1563 (= $p17_main0_2 $p17_main0_1)))
 (let (($x1560 (= $p16_push0_2 $p16_push0_1)))
 (let (($x1557 (= $p16_main0_2 $p16_main0_1)))
 (let (($x1554 (= $p15_push0_2 $p15_push0_1)))
 (let (($x1551 (= $p15_pop0_2 $p15_pop0_1)))
 (let (($x1548 (= $p15_main0_2 $p15_main0_1)))
 (let (($x1545 (= $p14_push0_2 $p14_push0_1)))
 (let (($x1542 (= $p14_pop0_2 $p14_pop0_1)))
 (let (($x1539 (= $p14_main0_2 $p14_main0_1)))
 (let (($x1536 (= $p13_push0_2 $p13_push0_1)))
 (let (($x1533 (= $p13_pop0_2 $p13_pop0_1)))
 (let (($x1530 (= $p13_main0_2 $p13_main0_1)))
 (let (($x1527 (= $p12_push0_2 $p12_push0_1)))
 (let (($x1524 (= $p12_pop0_2 $p12_pop0_1)))
 (let (($x1521 (= $p11_push0_2 $p11_push0_1)))
 (let (($x1518 (= $p11_pop0_2 $p11_pop0_1)))
 (let (($x1515 (= $p11_main0_2 $p11_main0_1)))
 (let (($x1512 (= $p10_push0_2 $p10_push0_1)))
 (let (($x1509 (= $p0_main0_2 $p0_main0_1)))
 (let (($x1506 (= $M.8_2 $M.8_1)))
 (let (($x1503 (= $M.7_2 $M.7_1)))
 (let (($x1500 (= $M.5_2 $M.5_1)))
 (let (($x1497 (= $M.4_2 $M.4_1)))
 (let (($x1498 (and (and (and true (= $M.1_2 $M.1_1)) (= $M.10_2 $M.10_1)) $x1497)))
 (let (($x1516 (and (and (and (and (and (and $x1498 $x1500) $x1503) $x1506) $x1509) $x1512) $x1515)))
 (let (($x1534 (and (and (and (and (and (and $x1516 $x1518) $x1521) $x1524) $x1527) $x1530) $x1533)))
 (let (($x1552 (and (and (and (and (and (and $x1534 $x1536) $x1539) $x1542) $x1545) $x1548) $x1551)))
 (let (($x1570 (and (and (and (and (and (and $x1552 $x1554) $x1557) $x1560) $x1563) $x1566) $x1569)))
 (let (($x1588 (and (and (and (and (and (and $x1570 $x1572) $x1575) $x1578) $x1581) $x1584) $x1587)))
 (let (($x1606 (and (and (and (and (and (and $x1588 $x1590) $x1593) $x1596) $x1599) $x1602) $x1605)))
 (let (($x1621 (and (and (and (and (and $x1606 $x1608) $x1611) $x1614) $x1617) $x1620)))
 (let (($x1783 (= $i4_main0_2 $i4_main01_2)))
 (let (($x1784 (and (and (= $i2_main0_2 $i2_main02_2) (= $i3_main0_2 $i3_main01_2)) $x1783)))
 (let (($x1785 (and $x1784 true)))
 (let (($x1766 (= $i2_main02_2 1)))
 (let (($x1774 (or (and (and (distinct 1 $i3_main01_2) true) (= $i4_main01_2 1)) (and (not (and (distinct 1 $i3_main01_2) true)) (= $i4_main01_2 0)))))
 (let (($x1776 (= $i3_main01_2 $M.0_1)))
 (let (($x2405 (and (and (and (and (and (and $x1776 $x1774) $x1766) $x1785) $x1621) $x1806) $x1752)))
 (let (($x1481 (= loc_1 2)))
 (let (($x1765 (and $x1481 (not (= $i1_main0_1 1)))))
 (let (($x1699 (= $i4_main0_2 $i4_main0_1)))
 (let (($x1690 (= $i3_main0_2 $i3_main0_1)))
 (let (($x1691 (and (and (and (and $x1679 (= $i2_main0_2 $i2_main0_1)) $x1684) $x1687) $x1690)))
 (let (($x1709 (and (and (and (and (and (and $x1691 $x1693) $x1696) $x1699) $x1702) $x1705) $x1708)))
 (let (($x1727 (and (and (and (and (and (and $x1709 $x1711) $x1714) $x1717) $x1720) $x1723) $x1726)))
 (let (($x1745 (and (and (and (and (and (and $x1727 $x1729) $x1732) $x1735) $x1738) $x1741) $x1744)))
 (let (($x1485 (= $i1_main0_1 1)))
 (let (($x1486 (and $x1481 $x1485)))
 (let (($x2408 (and (=> $x1486 (and (and (and (and $x1488 $x1621) $x1745) $x1752) $x1758)) (=> $x1765 (and $x2405 $x1810)))))
 (let (($x1474 (= H_1 H_0)))
 (let (($x1475 (and (and true (= AH_1 AH_0)) $x1474)))
 (let (($x1467 (= $r_main0_1 $r_main0_0)))
 (let (($x1463 (= $i9_main0_1 $i9_main0_0)))
 (let (($x1459 (= $i8_push0_1 $i8_push0_0)))
 (let (($x1455 (= $i8_main0_1 $i8_main0_0)))
 (let (($x1451 (= $i7_push0_1 $i7_push0_0)))
 (let (($x1447 (= $i7_pop0_1 $i7_pop0_0)))
 (let (($x1443 (= $i7_main0_1 $i7_main0_0)))
 (let (($x1439 (= $i6_push0_1 $i6_push0_0)))
 (let (($x1435 (= $i6_pop0_1 $i6_pop0_0)))
 (let (($x1431 (= $i6_main0_1 $i6_main0_0)))
 (let (($x1427 (= $i5_push0_1 $i5_push0_0)))
 (let (($x1423 (= $i5_pop0_1 $i5_pop0_0)))
 (let (($x1419 (= $i5_main0_1 $i5_main0_0)))
 (let (($x1415 (= $i4_push0_1 $i4_push0_0)))
 (let (($x1411 (= $i4_pop0_1 $i4_pop0_0)))
 (let (($x1407 (= $i4_main0_1 $i4_main0_0)))
 (let (($x1403 (= $i3_push0_1 $i3_push0_0)))
 (let (($x1399 (= $i3_pop0_1 $i3_pop0_0)))
 (let (($x1395 (= $i3_main0_1 $i3_main0_0)))
 (let (($x1391 (= $i2_push0_1 $i2_push0_0)))
 (let (($x1387 (= $i2_pop0_1 $i2_pop0_0)))
 (let (($x1383 (= $i24_main0_1 $i24_main0_0)))
 (let (($x1379 (= $i23_push0_1 $i23_push0_0)))
 (let (($x1375 (= $i23_main0_1 $i23_main0_0)))
 (let (($x1371 (= $i22_main0_1 $i22_main0_0)))
 (let (($x1367 (= $i21_main0_1 $i21_main0_0)))
 (let (($x1363 (= $i20_pop0_1 $i20_pop0_0)))
 (let (($x1359 (= $i1_push0_1 $i1_push0_0)))
 (let (($x1355 (= $i1_pop0_1 $i1_pop0_0)))
 (let (($x1351 (= $i19_main0_1 $i19_main0_0)))
 (let (($x1347 (= $i16_pop0_1 $i16_pop0_0)))
 (let (($x1343 (= $i12_main0_1 $i12_main0_0)))
 (let (($x1339 (= $i10_pop0_1 $i10_pop0_0)))
 (let (($x1335 (= $i10_main0_1 $i10_main0_0)))
 (let (($x1331 (= $i0_push0_1 $i0_push0_0)))
 (let (($x1327 (= $i0_pop0_1 $i0_pop0_0)))
 (let (($x1323 (= $M.9_1 $M.9_0)))
 (let (($x1324 (and (and (and true (= $M.0_1 $M.0_0)) (= $M.6_1 $M.6_0)) $x1323)))
 (let (($x1348 (and (and (and (and (and (and $x1324 $x1327) $x1331) $x1335) $x1339) $x1343) $x1347)))
 (let (($x1372 (and (and (and (and (and (and $x1348 $x1351) $x1355) $x1359) $x1363) $x1367) $x1371)))
 (let (($x1396 (and (and (and (and (and (and $x1372 $x1375) $x1379) $x1383) $x1387) $x1391) $x1395)))
 (let (($x1420 (and (and (and (and (and (and $x1396 $x1399) $x1403) $x1407) $x1411) $x1415) $x1419)))
 (let (($x1444 (and (and (and (and (and (and $x1420 $x1423) $x1427) $x1431) $x1435) $x1439) $x1443)))
 (let (($x1468 (and (and (and (and (and (and $x1444 $x1447) $x1451) $x1455) $x1459) $x1463) $x1467)))
 (let (($x1310 (= $p9_push0_1 $p9_push0_0)))
 (let (($x1306 (= $p9_pop0_1 $p9_pop0_0)))
 (let (($x1302 (= $p8_pop0_1 $p8_pop0_0)))
 (let (($x1298 (= $p24_push0_1 $p24_push0_0)))
 (let (($x1294 (= $p24_pop0_1 $p24_pop0_0)))
 (let (($x1290 (= $p23_pop0_1 $p23_pop0_0)))
 (let (($x1286 (= $p22_push0_1 $p22_push0_0)))
 (let (($x1282 (= $p22_pop0_1 $p22_pop0_0)))
 (let (($x1278 (= $p21_push0_1 $p21_push0_0)))
 (let (($x1274 (= $p21_pop0_1 $p21_pop0_0)))
 (let (($x1270 (= $p20_push0_1 $p20_push0_0)))
 (let (($x1266 (= $p20_main0_1 $p20_main0_0)))
 (let (($x1262 (= $p19_push0_1 $p19_push0_0)))
 (let (($x1258 (= $p19_pop0_1 $p19_pop0_0)))
 (let (($x1254 (= $p18_push0_1 $p18_push0_0)))
 (let (($x1250 (= $p18_pop0_1 $p18_pop0_0)))
 (let (($x1246 (= $p18_main0_1 $p18_main0_0)))
 (let (($x1242 (= $p17_push0_1 $p17_push0_0)))
 (let (($x1238 (= $p17_pop0_1 $p17_pop0_0)))
 (let (($x1234 (= $p17_main0_1 $p17_main0_0)))
 (let (($x1230 (= $p16_push0_1 $p16_push0_0)))
 (let (($x1226 (= $p16_main0_1 $p16_main0_0)))
 (let (($x1222 (= $p15_push0_1 $p15_push0_0)))
 (let (($x1218 (= $p15_pop0_1 $p15_pop0_0)))
 (let (($x1214 (= $p15_main0_1 $p15_main0_0)))
 (let (($x1210 (= $p14_push0_1 $p14_push0_0)))
 (let (($x1206 (= $p14_pop0_1 $p14_pop0_0)))
 (let (($x1202 (= $p14_main0_1 $p14_main0_0)))
 (let (($x1198 (= $p13_push0_1 $p13_push0_0)))
 (let (($x1194 (= $p13_pop0_1 $p13_pop0_0)))
 (let (($x1190 (= $p13_main0_1 $p13_main0_0)))
 (let (($x1186 (= $p12_push0_1 $p12_push0_0)))
 (let (($x1182 (= $p12_pop0_1 $p12_pop0_0)))
 (let (($x1178 (= $p11_push0_1 $p11_push0_0)))
 (let (($x1174 (= $p11_pop0_1 $p11_pop0_0)))
 (let (($x1170 (= $p11_main0_1 $p11_main0_0)))
 (let (($x1166 (= $p10_push0_1 $p10_push0_0)))
 (let (($x1162 (= $M.8_1 $M.8_0)))
 (let (($x1158 (= $M.7_1 $M.7_0)))
 (let (($x1154 (= $M.5_1 $M.5_0)))
 (let (($x1150 (= $M.4_1 $M.4_0)))
 (let (($x1151 (and (and (and true (= $M.1_1 $M.1_0)) (= $M.10_1 $M.10_0)) $x1150)))
 (let (($x1175 (and (and (and (and (and (and $x1151 $x1154) $x1158) $x1162) $x1166) $x1170) $x1174)))
 (let (($x1199 (and (and (and (and (and (and $x1175 $x1178) $x1182) $x1186) $x1190) $x1194) $x1198)))
 (let (($x1223 (and (and (and (and (and (and $x1199 $x1202) $x1206) $x1210) $x1214) $x1218) $x1222)))
 (let (($x1247 (and (and (and (and (and (and $x1223 $x1226) $x1230) $x1234) $x1238) $x1242) $x1246)))
 (let (($x1271 (and (and (and (and (and (and $x1247 $x1250) $x1254) $x1258) $x1262) $x1266) $x1270)))
 (let (($x1295 (and (and (and (and (and (and $x1271 $x1274) $x1278) $x1282) $x1286) $x1290) $x1294)))
 (let (($x1311 (and (and (and (and $x1295 $x1298) $x1302) $x1306) $x1310)))
 (let (($x1137 (= $p0_main0_1 $p0_main01_1)))
 (let (($x1138 (and (and (= $i1_main0_1 $i1_main01_1) (= $i2_main0_1 $i2_main01_1)) $x1137)))
 (let (($x1139 (and $x1138 true)))
 (let (($x1117 (= $i2_main01_1 1)))
 (let (($x1125 (or (and (and (distinct $p0_main01_1 nil) true) (= $i1_main01_1 1)) (and (not (and (distinct $p0_main01_1 nil) true)) (= $i1_main01_1 0)))))
 (let (($x1127 (= $p0_main01_1 $M.4_0)))
 (let (($x2391 (and (and (and (and (and (and $x1127 $x1125) $x1117) $x1139) $x1311) $x1468) $x1475)))
 (let (($x1107 (= loc_0 1)))
 (let (($x1109 (and (and (= H_0 emp) (= AH_0 emp)) $x1107)))
 (and (and (and (and $x1109 (=> $x1107 (and $x2391 $x1481))) $x2408) $x2438) $x2461))))))))))))))))))))))))))))))))))))))))))))))))))))))))))))))))))))))))))))))))))))))))))))))))))))))))))))))))))))))))))))))))))))))))))))))))))))))))))))))))))))))))))))))))))))))))))))))))))))))))))))))))))))))))))))))))))))))))))))))))))))))))))))))))))))))))))))))))))))))))))))))))))))))))))))))))))))))))))))))))))))))))))))))))))))))))))))))))))))))))))))))))))))))
(check-sat)
